Mn Te2
1.0
       34.7150001526         0.0000000000         0.0000000000
        0.0000000000        34.7150001526         0.0000000000
        0.0000000000         0.0000000000        34.7150001526
   Mn   Te
  201  256
Direct
     0.100000024         0.300000012         0.500000000
     0.100000024         0.500000000         0.300000012
     0.100000024         0.500000000         0.500000000
     0.100000024         0.500000000         0.699999988
     0.100000024         0.699999988         0.500000000
     0.300000012         0.100000024         0.500000000
     0.300000012         0.300000012         0.300000012
     0.300000012         0.300000012         0.500000000
     0.300000012         0.300000012         0.699999988
     0.300000012         0.500000000         0.100000024
     0.300000012         0.500000000         0.300000012
     0.300000012         0.500000000         0.500000000
     0.300000012         0.500000000         0.699999988
     0.300000012         0.500000000         0.899999976
     0.300000012         0.699999988         0.300000012
     0.300000012         0.699999988         0.500000000
     0.300000012         0.699999988         0.699999988
     0.300000012         0.899999976         0.500000000
     0.500000000         0.100000024         0.300000012
     0.500000000         0.100000024         0.500000000
     0.500000000         0.100000024         0.699999988
     0.500000000         0.300000012         0.100000024
     0.500000000         0.300000012         0.300000012
     0.500000000         0.300000012         0.500000000
     0.500000000         0.300000012         0.699999988
     0.500000000         0.300000012         0.899999976
     0.500000000         0.500000000         0.100000024
     0.500000000         0.500000000         0.300000012
     0.500000000         0.500000000         0.500000000
     0.500000000         0.500000000         0.699999988
     0.500000000         0.500000000         0.899999976
     0.500000000         0.699999988         0.100000024
     0.500000000         0.699999988         0.300000012
     0.500000000         0.699999988         0.500000000
     0.500000000         0.699999988         0.699999988
     0.500000000         0.699999988         0.899999976
     0.500000000         0.899999976         0.300000012
     0.500000000         0.899999976         0.500000000
     0.500000000         0.899999976         0.699999988
     0.699999988         0.100000024         0.500000000
     0.699999988         0.300000012         0.300000012
     0.699999988         0.300000012         0.500000000
     0.699999988         0.300000012         0.699999988
     0.699999988         0.500000000         0.100000024
     0.699999988         0.500000000         0.300000012
     0.699999988         0.500000000         0.500000000
     0.699999988         0.500000000         0.699999988
     0.699999988         0.500000000         0.899999976
     0.699999988         0.699999988         0.300000012
     0.699999988         0.699999988         0.500000000
     0.699999988         0.699999988         0.699999988
     0.699999988         0.899999976         0.500000000
     0.899999976         0.300000012         0.500000000
     0.899999976         0.500000000         0.300000012
     0.899999976         0.500000000         0.500000000
     0.899999976         0.500000000         0.699999988
     0.899999976         0.699999988         0.500000000
     0.199999988         0.300000012         0.400000006
     0.199999988         0.300000012         0.600000024
     0.199999988         0.500000000         0.199999988
     0.199999988         0.500000000         0.400000006
     0.199999988         0.500000000         0.600000024
     0.199999988         0.500000000         0.800000012
     0.199999988         0.699999988         0.400000006
     0.199999988         0.699999988         0.600000024
     0.400000006         0.100000024         0.400000006
     0.400000006         0.100000024         0.600000024
     0.400000006         0.300000012         0.199999988
     0.400000006         0.300000012         0.400000006
     0.400000006         0.300000012         0.600000024
     0.400000006         0.300000012         0.800000012
     0.400000006         0.500000000         0.199999988
     0.400000006         0.500000000         0.400000006
     0.400000006         0.500000000         0.600000024
     0.400000006         0.500000000         0.800000012
     0.400000006         0.699999988         0.199999988
     0.400000006         0.699999988         0.400000006
     0.400000006         0.699999988         0.600000024
     0.400000006         0.699999988         0.800000012
     0.400000006         0.899999976         0.400000006
     0.400000006         0.899999976         0.600000024
     0.600000024         0.100000024         0.400000006
     0.600000024         0.100000024         0.600000024
     0.600000024         0.300000012         0.199999988
     0.600000024         0.300000012         0.400000006
     0.600000024         0.300000012         0.600000024
     0.600000024         0.300000012         0.800000012
     0.600000024         0.500000000         0.199999988
     0.600000024         0.500000000         0.400000006
     0.600000024         0.500000000         0.600000024
     0.600000024         0.500000000         0.800000012
     0.600000024         0.699999988         0.199999988
     0.600000024         0.699999988         0.400000006
     0.600000024         0.699999988         0.600000024
     0.600000024         0.699999988         0.800000012
     0.600000024         0.899999976         0.400000006
     0.600000024         0.899999976         0.600000024
     0.800000012         0.300000012         0.400000006
     0.800000012         0.300000012         0.600000024
     0.800000012         0.500000000         0.199999988
     0.800000012         0.500000000         0.400000006
     0.800000012         0.500000000         0.600000024
     0.800000012         0.500000000         0.800000012
     0.800000012         0.699999988         0.400000006
     0.800000012         0.699999988         0.600000024
     0.100000024         0.400000006         0.400000006
     0.100000024         0.400000006         0.600000024
     0.100000024         0.600000024         0.400000006
     0.100000024         0.600000024         0.600000024
     0.300000012         0.199999988         0.400000006
     0.300000012         0.199999988         0.600000024
     0.300000012         0.400000006         0.199999988
     0.300000012         0.400000006         0.400000006
     0.300000012         0.400000006         0.600000024
     0.300000012         0.400000006         0.800000012
     0.300000012         0.600000024         0.199999988
     0.300000012         0.600000024         0.400000006
     0.300000012         0.600000024         0.600000024
     0.300000012         0.600000024         0.800000012
     0.300000012         0.800000012         0.400000006
     0.300000012         0.800000012         0.600000024
     0.500000000         0.199999988         0.199999988
     0.500000000         0.199999988         0.400000006
     0.500000000         0.199999988         0.600000024
     0.500000000         0.199999988         0.800000012
     0.500000000         0.400000006         0.199999988
     0.500000000         0.400000006         0.400000006
     0.500000000         0.400000006         0.600000024
     0.500000000         0.400000006         0.800000012
     0.500000000         0.600000024         0.199999988
     0.500000000         0.600000024         0.400000006
     0.500000000         0.600000024         0.600000024
     0.500000000         0.600000024         0.800000012
     0.500000000         0.800000012         0.199999988
     0.500000000         0.800000012         0.400000006
     0.500000000         0.800000012         0.600000024
     0.500000000         0.800000012         0.800000012
     0.699999988         0.199999988         0.400000006
     0.699999988         0.199999988         0.600000024
     0.699999988         0.400000006         0.199999988
     0.699999988         0.400000006         0.400000006
     0.699999988         0.400000006         0.600000024
     0.699999988         0.400000006         0.800000012
     0.699999988         0.600000024         0.199999988
     0.699999988         0.600000024         0.400000006
     0.699999988         0.600000024         0.600000024
     0.699999988         0.600000024         0.800000012
     0.699999988         0.800000012         0.400000006
     0.699999988         0.800000012         0.600000024
     0.899999976         0.400000006         0.400000006
     0.899999976         0.400000006         0.600000024
     0.899999976         0.600000024         0.400000006
     0.899999976         0.600000024         0.600000024
     0.199999988         0.199999988         0.500000000
     0.199999988         0.400000006         0.300000012
     0.199999988         0.400000006         0.500000000
     0.199999988         0.400000006         0.699999988
     0.199999988         0.600000024         0.300000012
     0.199999988         0.600000024         0.500000000
     0.199999988         0.600000024         0.699999988
     0.199999988         0.800000012         0.500000000
     0.400000006         0.199999988         0.300000012
     0.400000006         0.199999988         0.500000000
     0.400000006         0.199999988         0.699999988
     0.400000006         0.400000006         0.100000024
     0.400000006         0.400000006         0.300000012
     0.400000006         0.400000006         0.500000000
     0.400000006         0.400000006         0.699999988
     0.400000006         0.400000006         0.899999976
     0.400000006         0.600000024         0.100000024
     0.400000006         0.600000024         0.300000012
     0.400000006         0.600000024         0.500000000
     0.400000006         0.600000024         0.699999988
     0.400000006         0.600000024         0.899999976
     0.400000006         0.800000012         0.300000012
     0.400000006         0.800000012         0.500000000
     0.400000006         0.800000012         0.699999988
     0.600000024         0.199999988         0.300000012
     0.600000024         0.199999988         0.500000000
     0.600000024         0.199999988         0.699999988
     0.600000024         0.400000006         0.100000024
     0.600000024         0.400000006         0.300000012
     0.600000024         0.400000006         0.500000000
     0.600000024         0.400000006         0.699999988
     0.600000024         0.400000006         0.899999976
     0.600000024         0.600000024         0.100000024
     0.600000024         0.600000024         0.300000012
     0.600000024         0.600000024         0.500000000
     0.600000024         0.600000024         0.699999988
     0.600000024         0.600000024         0.899999976
     0.600000024         0.800000012         0.300000012
     0.600000024         0.800000012         0.500000000
     0.600000024         0.800000012         0.699999988
     0.800000012         0.199999988         0.500000000
     0.800000012         0.400000006         0.300000012
     0.800000012         0.400000006         0.500000000
     0.800000012         0.400000006         0.699999988
     0.800000012         0.600000024         0.300000012
     0.800000012         0.600000024         0.500000000
     0.800000012         0.600000024         0.699999988
     0.800000012         0.800000012         0.500000000
     0.177199990         0.377200007         0.377200007
     0.177199990         0.377200007         0.577199996
     0.177199990         0.577199996         0.377200007
     0.177199990         0.577199996         0.577199996
     0.377200007         0.177199990         0.377200007
     0.377200007         0.177199990         0.577199996
     0.377200007         0.377200007         0.177199990
     0.377200007         0.377200007         0.377200007
     0.377200007         0.377200007         0.577199996
     0.377200007         0.377200007         0.777199984
     0.377200007         0.577199996         0.177199990
     0.377200007         0.577199996         0.377200007
     0.377200007         0.577199996         0.577199996
     0.377200007         0.577199996         0.777199984
     0.377200007         0.777199984         0.377200007
     0.377200007         0.777199984         0.577199996
     0.577199996         0.177199990         0.377200007
     0.577199996         0.177199990         0.577199996
     0.577199996         0.377200007         0.177199990
     0.577199996         0.377200007         0.377200007
     0.577199996         0.377200007         0.577199996
     0.577199996         0.377200007         0.777199984
     0.577199996         0.577199996         0.177199990
     0.577199996         0.577199996         0.377200007
     0.577199996         0.577199996         0.577199996
     0.577199996         0.577199996         0.777199984
     0.577199996         0.777199984         0.377200007
     0.577199996         0.777199984         0.577199996
     0.777199984         0.377200007         0.377200007
     0.777199984         0.377200007         0.577199996
     0.777199984         0.577199996         0.377200007
     0.777199984         0.577199996         0.577199996
     0.222799987         0.422800004         0.422800004
     0.222799987         0.422800004         0.622799993
     0.222799987         0.622799993         0.422800004
     0.222799987         0.622799993         0.622799993
     0.422800004         0.222799987         0.422800004
     0.422800004         0.222799987         0.622799993
     0.422800004         0.422800004         0.222799987
     0.422800004         0.422800004         0.422800004
     0.422800004         0.422800004         0.622799993
     0.422800004         0.422800004         0.822800040
     0.422800004         0.622799993         0.222799987
     0.422800004         0.622799993         0.422800004
     0.422800004         0.622799993         0.622799993
     0.422800004         0.622799993         0.822800040
     0.422800004         0.822800040         0.422800004
     0.422800004         0.822800040         0.622799993
     0.622799993         0.222799987         0.422800004
     0.622799993         0.222799987         0.622799993
     0.622799993         0.422800004         0.222799987
     0.622799993         0.422800004         0.422800004
     0.622799993         0.422800004         0.622799993
     0.622799993         0.422800004         0.822800040
     0.622799993         0.622799993         0.222799987
     0.622799993         0.622799993         0.422800004
     0.622799993         0.622799993         0.622799993
     0.622799993         0.622799993         0.822800040
     0.622799993         0.822800040         0.422800004
     0.622799993         0.822800040         0.622799993
     0.822800040         0.422800004         0.422800004
     0.822800040         0.422800004         0.622799993
     0.822800040         0.622799993         0.422800004
     0.822800040         0.622799993         0.622799993
     0.122800022         0.422800004         0.477200001
     0.122800022         0.622799993         0.477200001
     0.322800010         0.222799987         0.477200001
     0.322800010         0.422800004         0.277199984
     0.322800010         0.422800004         0.477200001
     0.322800010         0.422800004         0.677199960
     0.322800010         0.622799993         0.277199984
     0.322800010         0.622799993         0.477200001
     0.322800010         0.622799993         0.677199960
     0.322800010         0.822800040         0.477200001
     0.522800028         0.222799987         0.277199984
     0.522800028         0.222799987         0.477200001
     0.522800028         0.222799987         0.677199960
     0.522800028         0.422800004         0.277199984
     0.522800028         0.422800004         0.477200001
     0.522800028         0.422800004         0.677199960
     0.522800028         0.422800004         0.877200007
     0.522800028         0.622799993         0.277199984
     0.522800028         0.622799993         0.477200001
     0.522800028         0.622799993         0.677199960
     0.522800028         0.622799993         0.877200007
     0.522800028         0.822800040         0.277199984
     0.522800028         0.822800040         0.477200001
     0.522800028         0.822800040         0.677199960
     0.722800016         0.222799987         0.477200001
     0.722800016         0.422800004         0.277199984
     0.722800016         0.422800004         0.477200001
     0.722800016         0.422800004         0.677199960
     0.722800016         0.622799993         0.277199984
     0.722800016         0.622799993         0.477200001
     0.722800016         0.622799993         0.677199960
     0.722800016         0.822800040         0.477200001
     0.277199984         0.177199990         0.522800028
     0.277199984         0.377200007         0.322800010
     0.277199984         0.377200007         0.522800028
     0.277199984         0.377200007         0.722800016
     0.277199984         0.577199996         0.322800010
     0.277199984         0.577199996         0.522800028
     0.277199984         0.577199996         0.722800016
     0.277199984         0.777199984         0.522800028
     0.477200001         0.177199990         0.322800010
     0.477200001         0.177199990         0.522800028
     0.477200001         0.177199990         0.722800016
     0.477200001         0.377200007         0.122800022
     0.477200001         0.377200007         0.322800010
     0.477200001         0.377200007         0.522800028
     0.477200001         0.377200007         0.722800016
     0.477200001         0.577199996         0.122800022
     0.477200001         0.577199996         0.322800010
     0.477200001         0.577199996         0.522800028
     0.477200001         0.577199996         0.722800016
     0.477200001         0.777199984         0.322800010
     0.477200001         0.777199984         0.522800028
     0.477200001         0.777199984         0.722800016
     0.677199960         0.177199990         0.522800028
     0.677199960         0.377200007         0.322800010
     0.677199960         0.377200007         0.522800028
     0.677199960         0.377200007         0.722800016
     0.677199960         0.577199996         0.322800010
     0.677199960         0.577199996         0.522800028
     0.677199960         0.577199996         0.722800016
     0.677199960         0.777199984         0.522800028
     0.877200007         0.377200007         0.522800028
     0.877200007         0.577199996         0.522800028
     0.222799987         0.277199984         0.522800028
     0.222799987         0.477200001         0.322800010
     0.222799987         0.477200001         0.522800028
     0.222799987         0.477200001         0.722800016
     0.222799987         0.677199960         0.522800028
     0.422800004         0.277199984         0.322800010
     0.422800004         0.277199984         0.522800028
     0.422800004         0.277199984         0.722800016
     0.422800004         0.477200001         0.122800022
     0.422800004         0.477200001         0.322800010
     0.422800004         0.477200001         0.522800028
     0.422800004         0.477200001         0.722800016
     0.422800004         0.677199960         0.322800010
     0.422800004         0.677199960         0.522800028
     0.422800004         0.677199960         0.722800016
     0.422800004         0.877200007         0.522800028
     0.622799993         0.277199984         0.322800010
     0.622799993         0.277199984         0.522800028
     0.622799993         0.277199984         0.722800016
     0.622799993         0.477200001         0.122800022
     0.622799993         0.477200001         0.322800010
     0.622799993         0.477200001         0.522800028
     0.622799993         0.477200001         0.722800016
     0.622799993         0.677199960         0.322800010
     0.622799993         0.677199960         0.522800028
     0.622799993         0.677199960         0.722800016
     0.622799993         0.877200007         0.522800028
     0.822800040         0.277199984         0.522800028
     0.822800040         0.477200001         0.322800010
     0.822800040         0.477200001         0.522800028
     0.822800040         0.477200001         0.722800016
     0.822800040         0.677199960         0.522800028
     0.177199990         0.322800010         0.477200001
     0.177199990         0.522800028         0.277199984
     0.177199990         0.522800028         0.477200001
     0.177199990         0.522800028         0.677199960
     0.177199990         0.722800016         0.477200001
     0.377200007         0.122800022         0.477200001
     0.377200007         0.322800010         0.277199984
     0.377200007         0.322800010         0.477200001
     0.377200007         0.322800010         0.677199960
     0.377200007         0.522800028         0.277199984
     0.377200007         0.522800028         0.477200001
     0.377200007         0.522800028         0.677199960
     0.377200007         0.522800028         0.877200007
     0.377200007         0.722800016         0.277199984
     0.377200007         0.722800016         0.477200001
     0.377200007         0.722800016         0.677199960
     0.577199996         0.122800022         0.477200001
     0.577199996         0.322800010         0.277199984
     0.577199996         0.322800010         0.477200001
     0.577199996         0.322800010         0.677199960
     0.577199996         0.522800028         0.277199984
     0.577199996         0.522800028         0.477200001
     0.577199996         0.522800028         0.677199960
     0.577199996         0.522800028         0.877200007
     0.577199996         0.722800016         0.277199984
     0.577199996         0.722800016         0.477200001
     0.577199996         0.722800016         0.677199960
     0.777199984         0.322800010         0.477200001
     0.777199984         0.522800028         0.277199984
     0.777199984         0.522800028         0.477200001
     0.777199984         0.522800028         0.677199960
     0.777199984         0.722800016         0.477200001
     0.277199984         0.322800010         0.422800004
     0.277199984         0.322800010         0.622799993
     0.277199984         0.522800028         0.222799987
     0.277199984         0.522800028         0.422800004
     0.277199984         0.522800028         0.622799993
     0.277199984         0.522800028         0.822800040
     0.277199984         0.722800016         0.422800004
     0.277199984         0.722800016         0.622799993
     0.477200001         0.122800022         0.422800004
     0.477200001         0.122800022         0.622799993
     0.477200001         0.322800010         0.222799987
     0.477200001         0.322800010         0.422800004
     0.477200001         0.322800010         0.622799993
     0.477200001         0.322800010         0.822800040
     0.477200001         0.522800028         0.222799987
     0.477200001         0.522800028         0.422800004
     0.477200001         0.522800028         0.622799993
     0.477200001         0.522800028         0.822800040
     0.477200001         0.722800016         0.222799987
     0.477200001         0.722800016         0.422800004
     0.477200001         0.722800016         0.622799993
     0.477200001         0.722800016         0.822800040
     0.677199960         0.322800010         0.422800004
     0.677199960         0.322800010         0.622799993
     0.677199960         0.522800028         0.222799987
     0.677199960         0.522800028         0.422800004
     0.677199960         0.522800028         0.622799993
     0.677199960         0.522800028         0.822800040
     0.677199960         0.722800016         0.422800004
     0.677199960         0.722800016         0.622799993
     0.877200007         0.522800028         0.422800004
     0.877200007         0.522800028         0.622799993
     0.122800022         0.477200001         0.377200007
     0.122800022         0.477200001         0.577199996
     0.322800010         0.277199984         0.377200007
     0.322800010         0.277199984         0.577199996
     0.322800010         0.477200001         0.177199990
     0.322800010         0.477200001         0.377200007
     0.322800010         0.477200001         0.577199996
     0.322800010         0.477200001         0.777199984
     0.322800010         0.677199960         0.377200007
     0.322800010         0.677199960         0.577199996
     0.522800028         0.277199984         0.177199990
     0.522800028         0.277199984         0.377200007
     0.522800028         0.277199984         0.577199996
     0.522800028         0.277199984         0.777199984
     0.522800028         0.477200001         0.177199990
     0.522800028         0.477200001         0.377200007
     0.522800028         0.477200001         0.577199996
     0.522800028         0.477200001         0.777199984
     0.522800028         0.677199960         0.177199990
     0.522800028         0.677199960         0.377200007
     0.522800028         0.677199960         0.577199996
     0.522800028         0.677199960         0.777199984
     0.522800028         0.877200007         0.377200007
     0.522800028         0.877200007         0.577199996
     0.722800016         0.277199984         0.377200007
     0.722800016         0.277199984         0.577199996
     0.722800016         0.477200001         0.177199990
     0.722800016         0.477200001         0.377200007
     0.722800016         0.477200001         0.577199996
     0.722800016         0.477200001         0.777199984
     0.722800016         0.677199960         0.377200007
     0.722800016         0.677199960         0.577199996
